1000 100
114 446
322 128
347 432
10 484
398 341
300 274
358 248
404 216
450 27
67 284
42 130
428 262
43 299
231 444
306 216
379 222
11 158
245 359
239 374
68 232
65 395
179 119
427 463
36 90
203 325
423 90
351 389
410 43
126 441
143 377
382 474
413 456
402 384
421 499
111 45
130 9
274 367
162 102
235 368
17 279
206 313
420 496
51 392
296 388
287 82
277 201
300 334
323 336
302 271
126 168
2 417
186 42
71 406
321 11
337 166
347 164
414 442
154 448
219 239
174 252
354 494
386 165
166 237
58 104
222 454
51 376
256 40
237 213
482 21
213 235
438 308
476 322
221 120
235 221
108 231
416 479
337 63
47 380
18 178
296 203
486 394
221 171
294 273
343 39
232 355
52 436
404 488
127 162
127 229
252 227
60 324
98 458
222 254
346 410
3 125
18 340
424 163
247 20
151 258
1 434
